a2-16 27835
16 17 0
23 24 0
18 19 1
10 33 1
25 21 0
27 11 0
22 15 1
24 8 0
7 28 0
21 27 0
26 3 1
5 32 0
28 30 0
29 20 0
30 29 0
6 18 1
34 0 0
0 23 0
15 2 1
2 26 1
13 25 0
4 9 0
31 6 1
17 1 0
1 7 0
20 4 0
19 10 1
9 5 0
8 12 0
14 13 0
12 14 0
35 22 1
11 34 0
3 35 1
32 16 0
33 31 1
